3973900.0
1758
0 1 2 3 4 5 6 7 8 9 10 11 12 13 15 17 18 21 22 23 24 27 28 30 32 34 35 36 37 38 39 40 41 42 43 44 47 48 49 52 53 54 56 57 58 59 60 61 62 63 64 66 67 68 70 71 72 73 74 75 76 78 79 80 81 82 83 85 89 90 91 92 94 95 96 97 98 99 